p cnf 546 1203
-1 -2 3 0
-3 1 0
-3 2 0
-4 -2 5 0
-5 4 0
-5 2 0
-2 -6 7 0
-7 2 0
-7 6 0
5 7 8 0
-8 -5 0
-8 -7 0
3 -8 9 0
-9 -3 0
-9 8 0
-9 10 11 0
-11 9 0
-11 -10 0
9 -10 12 0
-12 -9 0
-12 10 0
12 11 13 0
-13 -12 0
-13 -11 0
-14 -15 16 0
-16 14 0
-16 15 0
-17 -15 18 0
-18 17 0
-18 15 0
-15 -19 20 0
-20 15 0
-20 19 0
20 18 21 0
-21 -20 0
-21 -18 0
16 -21 22 0
-22 -16 0
-22 21 0
-23 22 24 0
-24 23 0
-24 -22 0
23 -22 25 0
-25 -23 0
-25 22 0
24 25 26 0
-26 -24 0
-26 -25 0
-28 -27 29 0
-29 28 0
-29 27 0
-28 -30 31 0
-31 28 0
-31 30 0
29 31 32 0
-32 -29 0
-32 -31 0
-33 -28 34 0
-34 33 0
-34 28 0
-32 34 35 0
-35 32 0
-35 -34 0
-35 36 37 0
-37 35 0
-37 -36 0
35 -36 38 0
-38 -35 0
-38 36 0
38 37 39 0
-39 -38 0
-39 -37 0
39 26 40 0
-40 -39 0
-40 -26 0
-40 13 41 0
-41 40 0
-41 -13 0
42 43 44 0
-44 -42 0
-44 -43 0
45 -44 46 0
-46 -45 0
-46 44 0
-47 -46 48 0
-48 47 0
-48 46 0
47 46 49 0
-49 -47 0
-49 -46 0
49 48 50 0
-50 -49 0
-50 -48 0
36 23 52 0
-52 -36 0
-52 -23 0
-52 10 53 0
-53 52 0
-53 -10 0
-53 -51 54 0
-54 53 0
-54 51 0
53 51 55 0
-55 -53 0
-55 -51 0
55 54 56 0
-56 -55 0
-56 -54 0
23 36 58 0
-58 -23 0
-58 -36 0
10 -58 59 0
-59 -10 0
-59 58 0
-57 -59 60 0
-60 57 0
-60 59 0
59 57 61 0
-61 -59 0
-61 -57 0
61 60 62 0
-62 -61 0
-62 -60 0
2 15 63 0
-63 -2 0
-63 -15 0
-63 64 65 0
-65 63 0
-65 -64 0
-65 -66 67 0
-67 65 0
-67 66 0
66 65 68 0
-68 -66 0
-68 -65 0
67 68 69 0
-69 -67 0
-69 -68 0
15 2 70 0
-70 -15 0
-70 -2 0
64 -70 71 0
-71 -64 0
-71 70 0
-71 -72 73 0
-73 71 0
-73 72 0
72 71 74 0
-74 -72 0
-74 -71 0
74 73 75 0
-75 -74 0
-75 -73 0
71 76 77 0
-77 -71 0
-77 -76 0
-76 -71 78 0
-78 76 0
-78 71 0
77 78 79 0
-79 -77 0
-79 -78 0
80 65 81 0
-81 -80 0
-81 -65 0
-65 -80 82 0
-82 65 0
-82 80 0
81 82 83 0
-83 -81 0
-83 -82 0
-70 64 84 0
-84 70 0
-84 -64 0
85 84 86 0
-86 -85 0
-86 -84 0
-85 -84 87 0
-87 85 0
-87 84 0
87 86 88 0
-88 -87 0
-88 -86 0
89 71 90 0
-90 -89 0
-90 -71 0
-71 -89 91 0
-91 71 0
-91 89 0
91 90 92 0
-92 -91 0
-92 -90 0
-44 45 93 0
-93 44 0
-93 -45 0
-93 -94 95 0
-95 93 0
-95 94 0
94 93 96 0
-96 -94 0
-96 -93 0
95 96 97 0
-97 -95 0
-97 -96 0
43 42 98 0
-98 -43 0
-98 -42 0
-98 45 99 0
-99 98 0
-99 -45 0
-100 -99 101 0
-101 100 0
-101 99 0
99 100 102 0
-102 -99 0
-102 -100 0
101 102 103 0
-103 -101 0
-103 -102 0
104 84 105 0
-105 -104 0
-105 -84 0
-104 -84 106 0
-106 104 0
-106 84 0
105 106 107 0
-107 -105 0
-107 -106 0
93 108 109 0
-109 -93 0
-109 -108 0
-93 -108 110 0
-110 93 0
-110 108 0
109 110 111 0
-111 -109 0
-111 -110 0
46 112 113 0
-113 -46 0
-113 -112 0
-112 -46 114 0
-114 112 0
-114 46 0
114 113 115 0
-115 -114 0
-115 -113 0
10 -52 116 0
-116 -10 0
-116 52 0
-117 -116 118 0
-118 117 0
-118 116 0
117 116 119 0
-119 -117 0
-119 -116 0
119 118 120 0
-120 -119 0
-120 -118 0
-53 -121 122 0
-122 53 0
-122 121 0
121 53 123 0
-123 -121 0
-123 -53 0
122 123 124 0
-124 -122 0
-124 -123 0
-124 -120 125 0
-125 124 0
-125 120 0
-58 10 126 0
-126 58 0
-126 -10 0
126 127 128 0
-128 -126 0
-128 -127 0
-126 -127 129 0
-129 126 0
-129 127 0
128 129 130 0
-130 -128 0
-130 -129 0
-130 -125 131 0
-131 130 0
-131 125 0
-115 -131 132 0
-132 115 0
-132 131 0
-132 -111 133 0
-133 132 0
-133 111 0
134 46 135 0
-135 -134 0
-135 -46 0
-134 -46 136 0
-136 134 0
-136 46 0
135 136 137 0
-137 -135 0
-137 -136 0
-133 -137 138 0
-138 133 0
-138 137 0
64 -63 139 0
-139 -64 0
-139 63 0
-140 -139 141 0
-141 140 0
-141 139 0
139 140 142 0
-142 -139 0
-142 -140 0
142 141 143 0
-143 -142 0
-143 -141 0
-143 -138 144 0
-144 143 0
-144 138 0
145 139 146 0
-146 -145 0
-146 -139 0
-139 -145 147 0
-147 139 0
-147 145 0
146 147 148 0
-148 -146 0
-148 -147 0
-144 -148 149 0
-149 144 0
-149 148 0
-149 -107 150 0
-150 149 0
-150 107 0
-150 -103 151 0
-151 150 0
-151 103 0
-46 -152 153 0
-153 46 0
-153 152 0
46 152 154 0
-154 -46 0
-154 -152 0
154 153 155 0
-155 -154 0
-155 -153 0
-151 -155 156 0
-156 151 0
-156 155 0
-156 -97 157 0
-157 156 0
-157 97 0
-157 -92 158 0
-158 157 0
-158 92 0
-158 -88 159 0
-159 158 0
-159 88 0
-159 -83 160 0
-160 159 0
-160 83 0
-160 -79 161 0
-161 160 0
-161 79 0
-161 -75 162 0
-162 161 0
-162 75 0
-69 -162 163 0
-163 69 0
-163 162 0
-163 -62 164 0
-164 163 0
-164 62 0
165 53 166 0
-166 -165 0
-166 -53 0
-53 -165 167 0
-167 53 0
-167 165 0
167 166 168 0
-168 -167 0
-168 -166 0
-168 -164 169 0
-169 168 0
-169 164 0
-56 -169 170 0
-170 56 0
-170 169 0
171 53 172 0
-172 -171 0
-172 -53 0
-171 -53 173 0
-173 171 0
-173 53 0
172 173 174 0
-174 -172 0
-174 -173 0
-170 -174 175 0
-175 170 0
-175 174 0
-176 -126 177 0
-177 176 0
-177 126 0
126 176 178 0
-178 -126 0
-178 -176 0
178 177 179 0
-179 -178 0
-179 -177 0
-175 -179 180 0
-180 175 0
-180 179 0
181 126 182 0
-182 -181 0
-182 -126 0
-126 -181 183 0
-183 126 0
-183 181 0
183 182 184 0
-184 -183 0
-184 -182 0
-180 -184 185 0
-185 180 0
-185 184 0
45 -98 186 0
-186 -45 0
-186 98 0
-186 -187 188 0
-188 186 0
-188 187 0
187 186 189 0
-189 -187 0
-189 -186 0
188 189 190 0
-190 -188 0
-190 -189 0
-190 -185 191 0
-191 190 0
-191 185 0
-50 -191 192 0
-192 50 0
-192 191 0
186 193 194 0
-194 -186 0
-194 -193 0
-193 -186 195 0
-195 193 0
-195 186 0
195 194 196 0
-196 -195 0
-196 -194 0
-196 -192 197 0
-197 196 0
-197 192 0
209 208 210 0
-210 -209 0
-210 -208 0
-210 207 211 0
-211 210 0
-211 -207 0
206 -211 212 0
-212 -206 0
-212 211 0
213 -212 214 0
-214 -213 0
-214 212 0
-214 205 215 0
-215 214 0
-215 -205 0
14 -215 216 0
-216 -14 0
-216 215 0
-216 1 217 0
-217 216 0
-217 -1 0
218 -217 219 0
-219 -218 0
-219 217 0
-219 204 220 0
-220 219 0
-220 -204 0
221 -220 222 0
-222 -221 0
-222 220 0
-222 203 223 0
-223 222 0
-223 -203 0
17 -223 224 0
-224 -17 0
-224 223 0
4 -224 225 0
-225 -4 0
-225 224 0
-225 226 227 0
-227 225 0
-227 -226 0
19 -227 228 0
-228 -19 0
-228 227 0
-228 6 229 0
-229 228 0
-229 -6 0
202 -229 230 0
-230 -202 0
-230 229 0
-230 201 231 0
-231 230 0
-231 -201 0
232 -231 233 0
-233 -232 0
-233 231 0
200 -233 234 0
-234 -200 0
-234 233 0
235 -234 236 0
-236 -235 0
-236 234 0
199 -236 237 0
-237 -199 0
-237 236 0
238 -237 239 0
-239 -238 0
-239 237 0
-239 240 241 0
-241 239 0
-241 -240 0
198 -241 242 0
-242 -198 0
-242 241 0
-242 243 244 0
-244 242 0
-244 -243 0
-246 245 247 0
-247 246 0
-247 -245 0
-238 247 248 0
-248 238 0
-248 -247 0
-249 250 251 0
-251 249 0
-251 -250 0
-199 251 252 0
-252 199 0
-252 -251 0
253 -254 255 0
-255 -253 0
-255 254 0
255 -226 256 0
-256 -255 0
-256 226 0
-258 257 259 0
-259 258 0
-259 -257 0
-204 259 260 0
-260 204 0
-260 -259 0
-262 261 263 0
-263 262 0
-263 -261 0
263 -14 264 0
-264 -263 0
-264 14 0
-266 265 267 0
-267 266 0
-267 -265 0
267 -205 268 0
-268 -267 0
-268 205 0
-270 269 271 0
-271 270 0
-271 -269 0
-209 271 272 0
-272 209 0
-272 -271 0
-273 274 275 0
-275 273 0
-275 -274 0
-208 275 276 0
-276 208 0
-276 -275 0
276 272 277 0
-277 -276 0
-277 -272 0
-279 278 280 0
-280 279 0
-280 -278 0
280 -207 281 0
-281 -280 0
-281 207 0
-277 281 282 0
-282 277 0
-282 -281 0
284 -283 285 0
-285 -284 0
-285 283 0
-206 285 286 0
-286 206 0
-286 -285 0
-282 286 287 0
-287 282 0
-287 -286 0
289 -288 290 0
-290 -289 0
-290 288 0
-213 290 291 0
-291 213 0
-291 -290 0
291 -287 292 0
-292 -291 0
-292 287 0
268 -292 293 0
-293 -268 0
-293 292 0
-293 264 294 0
-294 293 0
-294 -264 0
-296 295 297 0
-297 296 0
-297 -295 0
297 -1 298 0
-298 -297 0
-298 1 0
298 -294 299 0
-299 -298 0
-299 294 0
301 -300 302 0
-302 -301 0
-302 300 0
-218 302 303 0
-303 218 0
-303 -302 0
303 -299 304 0
-304 -303 0
-304 299 0
260 -304 305 0
-305 -260 0
-305 304 0
-306 307 308 0
-308 306 0
-308 -307 0
-221 308 309 0
-309 221 0
-309 -308 0
-305 309 310 0
-310 305 0
-310 -309 0
311 -312 313 0
-313 -311 0
-313 312 0
-203 313 314 0
-314 203 0
-314 -313 0
314 -310 315 0
-315 -314 0
-315 310 0
316 -317 318 0
-318 -316 0
-318 317 0
-17 318 319 0
-319 17 0
-319 -318 0
319 -315 320 0
-320 -319 0
-320 315 0
-321 322 323 0
-323 321 0
-323 -322 0
323 -4 324 0
-324 -323 0
-324 4 0
324 -320 325 0
-325 -324 0
-325 320 0
-325 256 326 0
-326 325 0
-326 -256 0
-327 328 329 0
-329 327 0
-329 -328 0
-19 329 330 0
-330 19 0
-330 -329 0
330 -326 331 0
-331 -330 0
-331 326 0
-333 332 334 0
-334 333 0
-334 -332 0
-6 334 335 0
-335 6 0
-335 -334 0
-331 335 336 0
-336 331 0
-336 -335 0
337 -338 339 0
-339 -337 0
-339 338 0
-202 339 340 0
-340 202 0
-340 -339 0
-336 340 341 0
-341 336 0
-341 -340 0
342 -343 344 0
-344 -342 0
-344 343 0
-201 344 345 0
-345 201 0
-345 -344 0
345 -341 346 0
-346 -345 0
-346 341 0
348 -347 349 0
-349 -348 0
-349 347 0
-232 349 350 0
-350 232 0
-350 -349 0
-346 350 351 0
-351 346 0
-351 -350 0
-352 353 354 0
-354 352 0
-354 -353 0
354 -200 355 0
-355 -354 0
-355 200 0
-351 355 356 0
-356 351 0
-356 -355 0
358 -357 359 0
-359 -358 0
-359 357 0
-235 359 360 0
-360 235 0
-360 -359 0
360 -356 361 0
-361 -360 0
-361 356 0
-361 252 362 0
-362 361 0
-362 -252 0
248 -362 363 0
-363 -248 0
-363 362 0
364 -365 366 0
-366 -364 0
-366 365 0
366 -240 367 0
-367 -366 0
-367 240 0
367 -363 368 0
-368 -367 0
-368 363 0
369 -370 371 0
-371 -369 0
-371 370 0
371 -198 372 0
-372 -371 0
-372 198 0
372 -368 373 0
-373 -372 0
-373 368 0
-375 374 376 0
-376 375 0
-376 -374 0
-243 376 377 0
-377 243 0
-377 -376 0
377 -373 378 0
-378 -377 0
-378 373 0
244 -378 379 0
-379 -244 0
-379 378 0
-379 -197 380 0
-380 379 0
-380 197 0
93 375 381 0
-381 -93 0
-381 -375 0
-93 -375 382 0
-382 93 0
-382 375 0
382 381 383 0
-383 -382 0
-383 -381 0
-93 -370 384 0
-384 93 0
-384 370 0
93 370 385 0
-385 -93 0
-385 -370 0
384 385 386 0
-386 -384 0
-386 -385 0
-249 -59 387 0
-387 249 0
-387 59 0
59 249 388 0
-388 -59 0
-388 -249 0
387 388 389 0
-389 -387 0
-389 -388 0
-357 -116 390 0
-390 357 0
-390 116 0
357 116 391 0
-391 -357 0
-391 -116 0
390 391 392 0
-392 -390 0
-392 -391 0
-116 -347 393 0
-393 116 0
-393 347 0
347 116 394 0
-394 -347 0
-394 -116 0
393 394 395 0
-395 -393 0
-395 -394 0
-338 -84 396 0
-396 338 0
-396 84 0
338 84 397 0
-397 -338 0
-397 -84 0
397 396 398 0
-398 -397 0
-398 -396 0
-333 -71 399 0
-399 333 0
-399 71 0
333 71 400 0
-400 -333 0
-400 -71 0
399 400 401 0
-401 -399 0
-401 -400 0
-71 -254 402 0
-402 71 0
-402 254 0
71 254 403 0
-403 -71 0
-403 -254 0
402 403 404 0
-404 -402 0
-404 -403 0
317 65 405 0
-405 -317 0
-405 -65 0
-317 -65 406 0
-406 317 0
-406 65 0
405 406 407 0
-407 -405 0
-407 -406 0
93 306 408 0
-408 -93 0
-408 -306 0
-306 -93 409 0
-409 306 0
-409 93 0
409 408 410 0
-410 -409 0
-410 -408 0
258 186 411 0
-411 -258 0
-411 -186 0
-258 -186 412 0
-412 258 0
-412 186 0
412 411 413 0
-413 -412 0
-413 -411 0
139 296 414 0
-414 -139 0
-414 -296 0
-139 -296 415 0
-415 139 0
-415 296 0
415 414 416 0
-416 -415 0
-416 -414 0
-262 -65 417 0
-417 262 0
-417 65 0
65 262 418 0
-418 -65 0
-418 -262 0
418 417 419 0
-419 -418 0
-419 -417 0
-46 -266 420 0
-420 46 0
-420 266 0
46 266 421 0
-421 -46 0
-421 -266 0
421 420 422 0
-422 -421 0
-422 -420 0
-288 -186 423 0
-423 288 0
-423 186 0
186 288 424 0
-424 -186 0
-424 -288 0
424 423 425 0
-425 -424 0
-425 -423 0
270 126 426 0
-426 -270 0
-426 -126 0
-270 -126 427 0
-427 270 0
-427 126 0
427 426 428 0
-428 -427 0
-428 -426 0
53 273 429 0
-429 -53 0
-429 -273 0
-273 -53 430 0
-430 273 0
-430 53 0
429 430 431 0
-431 -429 0
-431 -430 0
-428 -431 432 0
-432 428 0
-432 431 0
-126 -279 433 0
-433 126 0
-433 279 0
279 126 434 0
-434 -279 0
-434 -126 0
434 433 435 0
-435 -434 0
-435 -433 0
-435 -432 436 0
-436 435 0
-436 432 0
-283 -186 437 0
-437 283 0
-437 186 0
186 283 438 0
-438 -186 0
-438 -283 0
437 438 439 0
-439 -437 0
-439 -438 0
-439 -436 440 0
-440 439 0
-440 436 0
-425 -440 441 0
-441 425 0
-441 440 0
-422 -441 442 0
-442 422 0
-442 441 0
-419 -442 443 0
-443 419 0
-443 442 0
-443 -416 444 0
-444 443 0
-444 416 0
300 84 445 0
-445 -300 0
-445 -84 0
-300 -84 446 0
-446 300 0
-446 84 0
446 445 447 0
-447 -446 0
-447 -445 0
-444 -447 448 0
-448 444 0
-448 447 0
-413 -448 449 0
-449 413 0
-449 448 0
-410 -449 450 0
-450 410 0
-450 449 0
312 46 451 0
-451 -312 0
-451 -46 0
-312 -46 452 0
-452 312 0
-452 46 0
452 451 453 0
-453 -452 0
-453 -451 0
-453 -450 454 0
-454 453 0
-454 450 0
-407 -454 455 0
-455 407 0
-455 454 0
321 71 456 0
-456 -321 0
-456 -71 0
-71 -321 457 0
-457 71 0
-457 321 0
457 456 458 0
-458 -457 0
-458 -456 0
-455 -458 459 0
-459 455 0
-459 458 0
-404 -459 460 0
-460 404 0
-460 459 0
65 327 461 0
-461 -65 0
-461 -327 0
-65 -327 462 0
-462 65 0
-462 327 0
461 462 463 0
-463 -461 0
-463 -462 0
-463 -460 464 0
-464 463 0
-464 460 0
-464 -401 465 0
-465 464 0
-465 401 0
-465 -398 466 0
-466 465 0
-466 398 0
-126 -343 467 0
-467 126 0
-467 343 0
126 343 468 0
-468 -126 0
-468 -343 0
467 468 469 0
-469 -467 0
-469 -468 0
-466 -469 470 0
-470 466 0
-470 469 0
-395 -470 471 0
-471 395 0
-471 470 0
352 53 472 0
-472 -352 0
-472 -53 0
-352 -53 473 0
-473 352 0
-473 53 0
473 472 474 0
-474 -473 0
-474 -472 0
-471 -474 475 0
-475 471 0
-475 474 0
-392 -475 476 0
-476 392 0
-476 475 0
-389 -476 477 0
-477 389 0
-477 476 0
-246 -116 478 0
-478 246 0
-478 116 0
246 116 479 0
-479 -246 0
-479 -116 0
478 479 480 0
-480 -478 0
-480 -479 0
-477 -480 481 0
-481 477 0
-481 480 0
365 93 482 0
-482 -365 0
-482 -93 0
-93 -365 483 0
-483 93 0
-483 365 0
482 483 484 0
-484 -482 0
-484 -483 0
-481 -484 485 0
-485 481 0
-485 484 0
-386 -485 486 0
-486 386 0
-486 485 0
-486 -383 487 0
-487 486 0
-487 383 0
-487 -380 488 0
-488 487 0
-488 380 0
-488 -41 489 0
-489 488 0
-489 41 0
501 500 502 0
-502 -501 0
-502 -500 0
503 -502 504 0
-504 -503 0
-504 502 0
499 -504 505 0
-505 -499 0
-505 504 0
-505 506 507 0
-507 505 0
-507 -506 0
508 -507 509 0
-509 -508 0
-509 507 0
-509 43 510 0
-510 509 0
-510 -43 0
-510 42 511 0
-511 510 0
-511 -42 0
-511 45 512 0
-512 511 0
-512 -45 0
-512 498 513 0
-513 512 0
-513 -498 0
-513 514 515 0
-515 513 0
-515 -514 0
-515 497 516 0
-516 515 0
-516 -497 0
-516 496 517 0
-517 516 0
-517 -496 0
518 -517 519 0
-519 -518 0
-519 517 0
520 -519 521 0
-521 -520 0
-521 519 0
-521 495 522 0
-522 521 0
-522 -495 0
-522 494 523 0
-523 522 0
-523 -494 0
-523 524 525 0
-525 523 0
-525 -524 0
-525 493 526 0
-526 525 0
-526 -493 0
-526 492 527 0
-527 526 0
-527 -492 0
491 -527 528 0
-528 -491 0
-528 527 0
-528 15 529 0
-529 528 0
-529 -15 0
-529 2 530 0
-530 529 0
-530 -2 0
-530 64 531 0
-531 530 0
-531 -64 0
532 -531 533 0
-533 -532 0
-533 531 0
490 -533 534 0
-534 -490 0
-534 533 0
535 -534 536 0
-536 -535 0
-536 534 0
537 -536 538 0
-538 -537 0
-538 536 0
539 -538 540 0
-540 -539 0
-540 538 0
541 -540 542 0
-542 -541 0
-542 540 0
-542 36 543 0
-543 542 0
-543 -36 0
23 -543 544 0
-544 -23 0
-544 543 0
-544 10 545 0
-545 544 0
-545 -10 0
-489 545 546 0
-546 489 0
-546 -545 0
